# Solution for model GasLib-40
# Objective value = 2.2970211060087149e+01
loadshed[innode_1] 0
loadshed[innode_2] 0
loadshed[innode_3] 0
loadshed[innode_4] 0
loadshed[innode_5] 0
loadshed[innode_6] 0
loadshed[innode_7] 0
loadshed[innode_8] 0
loadshed[source_1] -2.1513257411555609e-01
loadshed[source_2] 1.6200363650076022e-01
loadshed[source_3] 1.9842700010761039e-01
loadshed[sink_1] 0
loadshed[sink_2] 0
loadshed[sink_3] 0
loadshed[sink_4] 0
loadshed[sink_5] 0
loadshed[sink_6] 0
loadshed[sink_7] 0
loadshed[sink_8] 0
loadshed[sink_9] 0
loadshed[sink_10] 0
loadshed[sink_11] 0
loadshed[sink_12] 1
loadshed[sink_13] 0
loadshed[sink_14] 0
loadshed[sink_15] 0
loadshed[sink_16] 0
loadshed[sink_17] 0
loadshed[sink_18] 0
loadshed[sink_19] 0
loadshed[sink_20] 0
loadshed[sink_21] 4.0454793743208034e-01
loadshed[sink_22] 0
loadshed[sink_23] 0
loadshed[sink_24] 0
loadshed[sink_25] 0
loadshed[sink_26] 0
loadshed[sink_27] 0
loadshed[sink_28] 0
loadshed[sink_29] 0
flow[source_1,sink_3] 1.9210064617875440e+02
flow[innode_1,sink_16] 1.6354166666666970e+01
flow[innode_6,sink_13] -1.2241731545487099e+01
flow[sink_13,sink_14] -2.8595898212153767e+01
flow[sink_14,sink_10] -4.4950064878820434e+01
flow[sink_25,sink_26] 1.5587822623662896e+02
flow[sink_26,sink_9] 8.1770833333333655e+01
flow[sink_9,sink_18] 6.5416666666666671e+01
flow[sink_26,sink_4] 5.7753226236628649e+01
flow[sink_4,sink_20] -3.3755729369950927e+01
flow[sink_18,sink_6] 4.9062500000000313e+01
flow[sink_25,innode_8] -1.5939231284541802e+02
flow[sink_6,sink_7] 0
flow[sink_6,sink_22] 3.2708333333333641e+01
flow[sink_7,sink_24] 2.6092288939912851e+01
flow[sink_22,sink_1] 1.6354166666666970e+01
flow[sink_24,sink_21] 9.7381222732461872e+00
flow[sink_21,sink_12] 0
flow[sink_7,sink_5] -4.2446455606579519e+01
flow[sink_5,sink_17] -5.8800622273246191e+01
flow[sink_17,sink_4] -7.5154788939912862e+01
flow[sink_17,sink_8] 0
flow[sink_3,sink_23] 16.3541666666697
flow[sink_8,sink_20] -1.6354166666668334e+01
flow[sink_25,sink_20] 6.6464062703286061e+01
flow[sink_25,sink_15] -6.7062411215676391e+01
flow[sink_15,sink_29] -9.9770744549027313e+01
flow[sink_29,sink_28] 1.6354166666667879e+01
flow[sink_29,sink_2] 0
flow[sink_2,sink_15] -1.6354166666684250e+01
flow[sink_29,innode_7] -1.3247907788236245e+02
flow[innode_4,sink_19] 4.9434724197818376e+01
flow[sink_19,innode_3] 4.5877734834044247e+01
flow[innode_4,innode_5] 7.7286174014336140e+01
flow[sink_27,innode_5] -7.7286174014336140e+01
flow[sink_27,sink_19] 6.0932007347669469e+01
flow[sink_10,sink_11] 3.2708333333333641e+01
flow[sink_10,innode_2] -4.8134830044776493e+01
flow[sink_10,innode_3] -4.5877734834044247e+01
flow[innode_6,sink_25] 1.2241731545487099e+01
flow[sink_11,innode_1] 1.6354166666666970e+01
flow[sink_19,innode_2] 4.8134830044776493e+01
flow[source_3,innode_4] 1.2672089821215451e+02
flow[source_2,innode_7] 1.3247907788236245e+02
flow[sink_3,innode_8] 1.5939231284541802e+02
pressure[innode_1] 7.6314697483522039e+01
pressure[innode_2] 7.9010523362351208e+01
pressure[innode_3] 7.8908932313651093e+01
pressure[innode_4] 81.01325
pressure[innode_5] 8.0960088494200363e+01
pressure[innode_6] 74.2216624229016
pressure[innode_7] 81.01325
pressure[innode_8] 8.0371130924931180e+01
pressure[source_1] 81.01325
pressure[source_2] 81.01325
pressure[source_3] 81.01325
pressure[sink_1] 5.2570892657704562e+01
pressure[sink_2] 7.4493587714608964e+01
pressure[sink_3] 8.0371130924931180e+01
pressure[sink_4] 5.5900355835514418e+01
pressure[sink_5] 4.8647966281235732e+01
pressure[sink_6] 5.4671970268091940e+01
pressure[sink_7] 3.0994817326232450e+01
pressure[sink_8] 5.7237177674081089e+01
pressure[sink_9] 5.8349055071550225e+01
pressure[sink_10] 7.6466398791125584e+01
pressure[sink_11] 7.6314697483522039e+01
pressure[sink_12] 1.0132500000000055e+00
pressure[sink_13] 7.4289149043128489e+01
pressure[sink_14] 7.4340323838811145e+01
pressure[sink_15] 7.4546980464375409e+01
pressure[sink_16] 7.5293047648704359e+01
pressure[sink_17] 5.3028187617487170e+01
pressure[sink_18] 5.5982085096351568e+01
pressure[sink_19] 7.9010523362351208e+01
pressure[sink_20] 5.8376833097669376e+01
pressure[sink_21] 1.0132500000000055e+00
pressure[sink_22] 5.3634661800059575e+01
pressure[sink_23] 80.2064129132714
pressure[sink_24] 1.1210906563815541e+00
pressure[sink_25] 74.2216624229016
pressure[sink_26] 6.3243250491261577e+01
pressure[sink_27] 80.3187560593755
pressure[sink_28] 7.7174671379220968e+01
pressure[sink_29] 7.7469953652838143e+01
interdiction[source_1,sink_3] 0
interdiction[innode_1,sink_16] 0
interdiction[innode_6,sink_13] 0
interdiction[sink_13,sink_14] 0
interdiction[sink_14,sink_10] 0
interdiction[sink_25,sink_26] 0
interdiction[sink_26,sink_9] 0
interdiction[sink_9,sink_18] 0
interdiction[sink_26,sink_4] 0
interdiction[sink_4,sink_20] 0
interdiction[sink_18,sink_6] 0
interdiction[sink_25,innode_8] 0
interdiction[sink_6,sink_7] 1
interdiction[sink_6,sink_22] 0
interdiction[sink_7,sink_24] 0
interdiction[sink_22,sink_1] 0
interdiction[sink_24,sink_21] 0
interdiction[sink_21,sink_12] 0
interdiction[sink_7,sink_5] 0
interdiction[sink_5,sink_17] 0
interdiction[sink_17,sink_4] 0
interdiction[sink_17,sink_8] 1
interdiction[sink_3,sink_23] 0
interdiction[sink_8,sink_20] 0
interdiction[sink_25,sink_20] 0
interdiction[sink_25,sink_15] 0
interdiction[sink_15,sink_29] 0
interdiction[sink_29,sink_28] 0
interdiction[sink_29,sink_2] 1
interdiction[sink_2,sink_15] 0
interdiction[sink_29,innode_7] 0
interdiction[innode_4,sink_19] 0
interdiction[sink_19,innode_3] 0
interdiction[innode_4,innode_5] 0
interdiction[sink_27,innode_5] 0
interdiction[sink_27,sink_19] 0
interdiction[sink_10,sink_11] 0
interdiction[sink_10,innode_2] 0
interdiction[sink_10,innode_3] 0
interdiction[innode_6,sink_25] 0
interdiction[sink_11,innode_1] 0
interdiction[sink_19,innode_2] 0
interdiction[source_3,innode_4] 0
interdiction[source_2,innode_7] 0
interdiction[sink_3,innode_8] 0
WCcheckFlow[source_1,sink_3] 39
WCcheckFlow[innode_1,sink_16] 1
WCcheckFlow[innode_6,sink_13] 13
WCcheckFlow[sink_13,sink_14] 12
WCcheckFlow[sink_14,sink_10] 11
WCcheckFlow[sink_25,sink_26] 15
WCcheckFlow[sink_26,sink_9] 5
WCcheckFlow[sink_9,sink_18] 4
WCcheckFlow[sink_26,sink_4] 9
WCcheckFlow[sink_4,sink_20] 2
WCcheckFlow[sink_18,sink_6] 3
WCcheckFlow[sink_25,innode_8] -36
WCcheckFlow[sink_6,sink_7] 0
WCcheckFlow[sink_6,sink_22] 2
WCcheckFlow[sink_7,sink_24] 3
WCcheckFlow[sink_22,sink_1] 1
WCcheckFlow[sink_24,sink_21] 2
WCcheckFlow[sink_21,sink_12] 1
WCcheckFlow[sink_7,sink_5] -4
WCcheckFlow[sink_5,sink_17] -5
WCcheckFlow[sink_17,sink_4] -6
WCcheckFlow[sink_17,sink_8] 0
WCcheckFlow[sink_3,sink_23] 1
WCcheckFlow[sink_8,sink_20] -1
WCcheckFlow[sink_25,sink_20] 0
WCcheckFlow[sink_25,sink_15] 6
WCcheckFlow[sink_15,sink_29] 4
WCcheckFlow[sink_29,sink_28] 1
WCcheckFlow[sink_29,sink_2] 0
WCcheckFlow[sink_2,sink_15] -1
WCcheckFlow[sink_29,innode_7] 2
WCcheckFlow[innode_4,sink_19] -4
WCcheckFlow[sink_19,innode_3] -5
WCcheckFlow[innode_4,innode_5] 2
WCcheckFlow[sink_27,innode_5] -1
WCcheckFlow[sink_27,sink_19] 0
WCcheckFlow[sink_10,sink_11] 3
WCcheckFlow[sink_10,innode_2] 1
WCcheckFlow[sink_10,innode_3] 6
WCcheckFlow[innode_6,sink_25] -14
WCcheckFlow[sink_11,innode_1] 2
WCcheckFlow[sink_19,innode_2] 0
WCcheckFlow[source_3,innode_4] -1
WCcheckFlow[source_2,innode_7] -1
WCcheckFlow[sink_3,innode_8] 37
